2695.45
0 3 9 1 10 11 7 8 17 5 14 6 13 2 4 12 0
0 20 35 29 24 25 16 91 15 22 23 21 26 19 46 18 27 28 0
0 33 34 30 32 31 36 38 44 37 42 43 41 39 40 0
0 54 55 56 57 60 45 48 47 49 64 51 50 52 53 0
0 65 66 63 62 61 59 58 67 68 69 0
0 75 74 73 72 84 83 82 70 71 81 78 79 77 80 76 0
0 90 88 86 85 93 92 95 87 94 89 0
0 97 100 98 99 104 96 106 107 108 103 102 101 105 0
0 118 114 113 119 117 115 110 121 129 109 116 111 112 0
0 130 133 125 124 123 126 131 128 136 120 122 132 127 0
0 142 140 141 143 135 134 139 145 144 137 138 146 147 0
0 149 150 148 0
